unsat
(error "line 3495 column 17: model is not available")
(error "line 3496 column 17: model is not available")
(error "line 3497 column 18: model is not available")
(error "line 3498 column 19: model is not available")
(error "line 3499 column 19: model is not available")
(error "line 3500 column 19: model is not available")
(error "line 3501 column 19: model is not available")
(error "line 3502 column 19: model is not available")
(error "line 3503 column 19: model is not available")
(error "line 3504 column 19: model is not available")
(error "line 3505 column 19: model is not available")
(error "line 3506 column 19: model is not available")
(error "line 3507 column 19: model is not available")
(error "line 3508 column 18: model is not available")
(error "line 3509 column 19: model is not available")
(error "line 3510 column 19: model is not available")
(error "line 3511 column 19: model is not available")
(error "line 3512 column 19: model is not available")
(error "line 3513 column 19: model is not available")
(error "line 3514 column 19: model is not available")
(error "line 3515 column 19: model is not available")
(error "line 3516 column 19: model is not available")
(error "line 3517 column 19: model is not available")
(error "line 3518 column 19: model is not available")
(error "line 3519 column 18: model is not available")
(error "line 3520 column 19: model is not available")
(error "line 3521 column 19: model is not available")
(error "line 3522 column 19: model is not available")
(error "line 3523 column 19: model is not available")
(error "line 3524 column 19: model is not available")
(error "line 3525 column 19: model is not available")
(error "line 3526 column 19: model is not available")
(error "line 3527 column 19: model is not available")
(error "line 3528 column 19: model is not available")
(error "line 3529 column 19: model is not available")
(error "line 3530 column 18: model is not available")
(error "line 3531 column 19: model is not available")
(error "line 3532 column 19: model is not available")
(error "line 3533 column 19: model is not available")
(error "line 3534 column 19: model is not available")
(error "line 3535 column 19: model is not available")
(error "line 3536 column 19: model is not available")
(error "line 3537 column 19: model is not available")
(error "line 3538 column 19: model is not available")
(error "line 3539 column 19: model is not available")
(error "line 3540 column 19: model is not available")
(error "line 3541 column 18: model is not available")
(error "line 3542 column 19: model is not available")
(error "line 3543 column 19: model is not available")
(error "line 3544 column 19: model is not available")
(error "line 3545 column 19: model is not available")
(error "line 3546 column 19: model is not available")
(error "line 3547 column 19: model is not available")
(error "line 3548 column 19: model is not available")
(error "line 3549 column 19: model is not available")
(error "line 3550 column 19: model is not available")
(error "line 3551 column 19: model is not available")
(error "line 3552 column 18: model is not available")
(error "line 3553 column 19: model is not available")
(error "line 3554 column 19: model is not available")
(error "line 3555 column 19: model is not available")
(error "line 3556 column 19: model is not available")
(error "line 3557 column 19: model is not available")
(error "line 3558 column 19: model is not available")
(error "line 3559 column 19: model is not available")
(error "line 3560 column 19: model is not available")
(error "line 3561 column 19: model is not available")
(error "line 3562 column 19: model is not available")
(error "line 3563 column 18: model is not available")
(error "line 3564 column 19: model is not available")
(error "line 3565 column 18: model is not available")
(error "line 3566 column 18: model is not available")
(error "line 3567 column 18: model is not available")
(error "line 3568 column 17: model is not available")
(error "line 3569 column 18: model is not available")
(error "line 3570 column 18: model is not available")
(error "line 3571 column 18: model is not available")
(error "line 3572 column 18: model is not available")
(error "line 3573 column 18: model is not available")
(error "line 3574 column 18: model is not available")
(error "line 3575 column 18: model is not available")
(error "line 3576 column 18: model is not available")
(error "line 3577 column 18: model is not available")
(error "line 3578 column 18: model is not available")
(error "line 3579 column 17: model is not available")
(error "line 3580 column 18: model is not available")
(error "line 3581 column 18: model is not available")
(error "line 3582 column 18: model is not available")
(error "line 3583 column 18: model is not available")
(error "line 3584 column 18: model is not available")
(error "line 3585 column 18: model is not available")
(error "line 3586 column 18: model is not available")
(error "line 3587 column 18: model is not available")
(error "line 3588 column 18: model is not available")
(error "line 3589 column 18: model is not available")
(error "line 3590 column 17: model is not available")
(error "line 3591 column 18: model is not available")
(error "line 3592 column 18: model is not available")
(error "line 3593 column 18: model is not available")
(error "line 3594 column 18: model is not available")
(error "line 3595 column 18: model is not available")
(error "line 3596 column 18: model is not available")
(error "line 3597 column 18: model is not available")
(error "line 3598 column 18: model is not available")
(error "line 3599 column 18: model is not available")
(error "line 3600 column 18: model is not available")
(error "line 3601 column 17: model is not available")
(error "line 3602 column 18: model is not available")
(error "line 3603 column 18: model is not available")
(error "line 3604 column 18: model is not available")
(error "line 3605 column 18: model is not available")
(error "line 3606 column 18: model is not available")
(error "line 3607 column 18: model is not available")
(error "line 3608 column 18: model is not available")
(error "line 3609 column 18: model is not available")
(error "line 3610 column 18: model is not available")
(error "line 3611 column 18: model is not available")
(error "line 3612 column 17: model is not available")
(error "line 3613 column 18: model is not available")
(error "line 3614 column 18: model is not available")
(error "line 3615 column 18: model is not available")
(error "line 3616 column 18: model is not available")
(error "line 3617 column 18: model is not available")
(error "line 3618 column 18: model is not available")
(error "line 3619 column 18: model is not available")
(error "line 3620 column 18: model is not available")
(error "line 3621 column 18: model is not available")
(error "line 3622 column 18: model is not available")
(error "line 3623 column 17: model is not available")
(error "line 3624 column 18: model is not available")
(error "line 3625 column 18: model is not available")
(error "line 3626 column 18: model is not available")
(error "line 3627 column 18: model is not available")
(error "line 3628 column 18: model is not available")
(error "line 3629 column 18: model is not available")
(error "line 3630 column 18: model is not available")
(error "line 3631 column 18: model is not available")
(error "line 3632 column 18: model is not available")
(error "line 3633 column 18: model is not available")
(error "line 3634 column 17: model is not available")
(error "line 3635 column 18: model is not available")
(error "line 3636 column 18: model is not available")
(error "line 3637 column 18: model is not available")
(error "line 3638 column 18: model is not available")
(error "line 3639 column 18: model is not available")
(error "line 3640 column 18: model is not available")
(error "line 3641 column 18: model is not available")
(error "line 3642 column 18: model is not available")
(error "line 3643 column 18: model is not available")
(error "line 3644 column 18: model is not available")
(error "line 3645 column 17: model is not available")
(error "line 3646 column 18: model is not available")
(error "line 3647 column 18: model is not available")
(error "line 3648 column 18: model is not available")
(error "line 3649 column 18: model is not available")
(error "line 3650 column 18: model is not available")
(error "line 3651 column 18: model is not available")
(error "line 3652 column 18: model is not available")
(error "line 3653 column 18: model is not available")
(error "line 3654 column 18: model is not available")
(error "line 3655 column 18: model is not available")
(error "line 3656 column 38: model is not available")
(error "line 3657 column 45: model is not available")
(error "line 3658 column 38: model is not available")
(error "line 3659 column 45: model is not available")
(error "line 3660 column 46: model is not available")
(error "line 3661 column 53: model is not available")
(error "line 3662 column 40: model is not available")
(error "line 3663 column 47: model is not available")
(error "line 3664 column 38: model is not available")
(error "line 3665 column 45: model is not available")
(error "line 3666 column 38: model is not available")
(error "line 3667 column 45: model is not available")
(error "line 3668 column 41: model is not available")
(error "line 3669 column 48: model is not available")
(error "line 3670 column 42: model is not available")
(error "line 3671 column 42: model is not available")
(error "line 3672 column 49: model is not available")
(error "line 3673 column 41: model is not available")
(error "line 3674 column 48: model is not available")
(error "line 3675 column 41: model is not available")
(error "line 3676 column 48: model is not available")
(error "line 3677 column 41: model is not available")
(error "line 3678 column 41: model is not available")
(error "line 3679 column 48: model is not available")
(error "line 3680 column 41: model is not available")
(error "line 3681 column 48: model is not available")
(error "line 3682 column 41: model is not available")
(error "line 3683 column 41: model is not available")
(error "line 3684 column 48: model is not available")
(error "line 3685 column 41: model is not available")
(error "line 3686 column 48: model is not available")
(error "line 3687 column 37: model is not available")
(error "line 3688 column 44: model is not available")
(error "line 3689 column 42: model is not available")
(error "line 3690 column 42: model is not available")
(error "line 3691 column 42: model is not available")
(error "line 3692 column 42: model is not available")
(error "line 3693 column 42: model is not available")
(error "line 3694 column 38: model is not available")
(error "line 3695 column 38: model is not available")
(error "line 3696 column 38: model is not available")
(error "line 3697 column 38: model is not available")
(error "line 3698 column 38: model is not available")
(error "line 3699 column 38: model is not available")
(error "line 3700 column 38: model is not available")
(error "line 3701 column 38: model is not available")
(error "line 3702 column 38: model is not available")
(error "line 3703 column 41: model is not available")
(error "line 3704 column 48: model is not available")
(error "line 3705 column 41: model is not available")
(error "line 3706 column 48: model is not available")
(error "line 3707 column 41: model is not available")
(error "line 3708 column 48: model is not available")
(error "line 3709 column 41: model is not available")
(error "line 3710 column 48: model is not available")
(error "line 3711 column 41: model is not available")
(error "line 3712 column 48: model is not available")
(error "line 3713 column 41: model is not available")
(error "line 3714 column 48: model is not available")
(error "line 3715 column 41: model is not available")
(error "line 3716 column 48: model is not available")
(error "line 3717 column 53: model is not available")
(error "line 3718 column 53: model is not available")
(error "line 3719 column 53: model is not available")
(error "line 3720 column 53: model is not available")
(error "line 3721 column 34: model is not available")
(error "line 3722 column 34: model is not available")
(error "line 3723 column 34: model is not available")
(error "line 3724 column 34: model is not available")
(error "line 3725 column 34: model is not available")
(error "line 3726 column 34: model is not available")
(error "line 3727 column 34: model is not available")
(error "line 3728 column 34: model is not available")
(error "line 3729 column 34: model is not available")
(error "line 3730 column 34: model is not available")
(error "line 3731 column 34: model is not available")
(error "line 3732 column 34: model is not available")
(error "line 3733 column 34: model is not available")
(error "line 3734 column 26: model is not available")
(error "line 3735 column 26: model is not available")
(error "line 3736 column 26: model is not available")
(error "line 3737 column 26: model is not available")
(error "line 3738 column 26: model is not available")
(error "line 3739 column 26: model is not available")
(error "line 3740 column 34: model is not available")
(error "line 3741 column 34: model is not available")
(error "line 3742 column 34: model is not available")
(error "line 3743 column 34: model is not available")
(error "line 3744 column 34: model is not available")
(error "line 3745 column 34: model is not available")
(error "line 3746 column 34: model is not available")
(error "line 3747 column 34: model is not available")
(error "line 3748 column 34: model is not available")
(error "line 3749 column 34: model is not available")
(error "line 3750 column 34: model is not available")
(error "line 3751 column 34: model is not available")
(error "line 3752 column 34: model is not available")
(error "line 3753 column 34: model is not available")
(error "line 3754 column 34: model is not available")
(error "line 3755 column 34: model is not available")
(error "line 3756 column 26: model is not available")
(error "line 3757 column 26: model is not available")
(error "line 3758 column 26: model is not available")
(error "line 3759 column 26: model is not available")
(error "line 3760 column 26: model is not available")
(error "line 3761 column 26: model is not available")
(error "line 3762 column 38: model is not available")
(error "line 3763 column 39: model is not available")
(error "line 3764 column 39: model is not available")
(error "line 3765 column 39: model is not available")
(error "line 3766 column 38: model is not available")
(error "line 3767 column 38: model is not available")
(error "line 3768 column 38: model is not available")
(error "line 3769 column 38: model is not available")
(error "line 3770 column 38: model is not available")
(error "line 3771 column 38: model is not available")
(error "line 3772 column 38: model is not available")
(error "line 3773 column 38: model is not available")
(error "line 3774 column 36: model is not available")
(error "line 3775 column 36: model is not available")
(error "line 3776 column 36: model is not available")
(error "line 3777 column 36: model is not available")
(error "line 3778 column 29: model is not available")
(error "line 3779 column 31: model is not available")
(error "line 3780 column 38: model is not available")
(error "line 3781 column 31: model is not available")
(error "line 3782 column 38: model is not available")
(error "line 3783 column 31: model is not available")
(error "line 3784 column 38: model is not available")
(error "line 3785 column 31: model is not available")
(error "line 3786 column 38: model is not available")
(error "line 3787 column 31: model is not available")
(error "line 3788 column 38: model is not available")
(error "line 3789 column 53: model is not available")
(error "line 3790 column 51: model is not available")
(error "line 3791 column 53: model is not available")
(error "line 3792 column 53: model is not available")
(error "line 3793 column 52: model is not available")
(error "line 3794 column 53: model is not available")
(error "line 3795 column 53: model is not available")
(error "line 3796 column 53: model is not available")
(error "line 3797 column 52: model is not available")
(error "line 3798 column 52: model is not available")
(error "line 3799 column 51: model is not available")
(error "line 3800 column 51: model is not available")
(error "line 3801 column 51: model is not available")
(error "line 3802 column 51: model is not available")
(error "line 3803 column 51: model is not available")
(error "line 3804 column 51: model is not available")
(error "line 3805 column 52: model is not available")
(error "line 3806 column 51: model is not available")
(error "line 3807 column 51: model is not available")
(error "line 3808 column 51: model is not available")
(error "line 3809 column 51: model is not available")
(error "line 3810 column 51: model is not available")
(error "line 3811 column 51: model is not available")
(error "line 3812 column 52: model is not available")
(error "line 3813 column 51: model is not available")
(error "line 3814 column 51: model is not available")
(error "line 3815 column 51: model is not available")
(error "line 3816 column 51: model is not available")
(error "line 3817 column 51: model is not available")
(error "line 3818 column 51: model is not available")
(error "line 3819 column 51: model is not available")
(error "line 3820 column 51: model is not available")
(error "line 3821 column 51: model is not available")
(error "line 3822 column 51: model is not available")
(error "line 3823 column 51: model is not available")
(error "line 3824 column 51: model is not available")
(error "line 3825 column 51: model is not available")
(error "line 3826 column 51: model is not available")
(error "line 3827 column 51: model is not available")
(error "line 3828 column 51: model is not available")
(error "line 3829 column 51: model is not available")
(error "line 3830 column 50: model is not available")
(error "line 3831 column 50: model is not available")
(error "line 3832 column 50: model is not available")
(error "line 3833 column 51: model is not available")
(error "line 3834 column 51: model is not available")
(error "line 3835 column 51: model is not available")
(error "line 3836 column 51: model is not available")
(error "line 3837 column 51: model is not available")
(error "line 3838 column 51: model is not available")
(error "line 3839 column 51: model is not available")
(error "line 3840 column 51: model is not available")
(error "line 3841 column 51: model is not available")
(error "line 3842 column 51: model is not available")
(error "line 3843 column 51: model is not available")
(error "line 3844 column 50: model is not available")
(error "line 3845 column 50: model is not available")
(error "line 3846 column 50: model is not available")
(error "line 3847 column 51: model is not available")
(error "line 3848 column 51: model is not available")
(error "line 3849 column 51: model is not available")
(error "line 3850 column 51: model is not available")
(error "line 3851 column 51: model is not available")
(error "line 3852 column 51: model is not available")
(error "line 3853 column 51: model is not available")
(error "line 3854 column 51: model is not available")
(error "line 3855 column 51: model is not available")
(error "line 3856 column 51: model is not available")
(error "line 3857 column 51: model is not available")
(error "line 3858 column 50: model is not available")
(error "line 3859 column 50: model is not available")
(error "line 3860 column 50: model is not available")
(error "line 3861 column 56: model is not available")
(error "line 3862 column 56: model is not available")
(error "line 3863 column 56: model is not available")
(error "line 3864 column 56: model is not available")
(error "line 3865 column 57: model is not available")
(error "line 3866 column 57: model is not available")
(error "line 3867 column 55: model is not available")
(error "line 3868 column 55: model is not available")
(error "line 3869 column 55: model is not available")
(error "line 3870 column 55: model is not available")
(error "line 3871 column 55: model is not available")
(error "line 3872 column 55: model is not available")
(error "line 3873 column 55: model is not available")
(error "line 3874 column 55: model is not available")
(error "line 3875 column 55: model is not available")
(error "line 3876 column 55: model is not available")
(error "line 3877 column 55: model is not available")
(error "line 3878 column 55: model is not available")
(error "line 3879 column 55: model is not available")
(error "line 3880 column 56: model is not available")
(error "line 3881 column 56: model is not available")
(error "line 3882 column 56: model is not available")
(error "line 3883 column 56: model is not available")
(error "line 3884 column 56: model is not available")
(error "line 3885 column 56: model is not available")
(error "line 3886 column 56: model is not available")
(error "line 3887 column 56: model is not available")
(error "line 3888 column 55: model is not available")
(error "line 3889 column 55: model is not available")
(error "line 3890 column 55: model is not available")
(error "line 3891 column 55: model is not available")
(error "line 3892 column 55: model is not available")
(error "line 3893 column 55: model is not available")
(error "line 3894 column 55: model is not available")
(error "line 3895 column 55: model is not available")
(error "line 3896 column 56: model is not available")
(error "line 3897 column 56: model is not available")
(error "line 3898 column 56: model is not available")
(error "line 3899 column 56: model is not available")
(error "line 3900 column 55: model is not available")
(error "line 3901 column 55: model is not available")
(error "line 3902 column 55: model is not available")
(error "line 3903 column 22: model is not available")
(error "line 3904 column 29: model is not available")
(error "line 3905 column 23: model is not available")
(error "line 3906 column 30: model is not available")
(error "line 3907 column 23: model is not available")
(error "line 3908 column 30: model is not available")
(error "line 3909 column 23: model is not available")
(error "line 3910 column 23: model is not available")
(error "line 3911 column 30: model is not available")
(error "line 3912 column 23: model is not available")
(error "line 3913 column 30: model is not available")
(error "line 3914 column 23: model is not available")
(error "line 3915 column 23: model is not available")
(error "line 3916 column 30: model is not available")
(error "line 3917 column 23: model is not available")
(error "line 3918 column 30: model is not available")
(error "line 3919 column 23: model is not available")
(error "line 3920 column 23: model is not available")
(error "line 3921 column 30: model is not available")
(error "line 3922 column 22: model is not available")
(error "line 3923 column 29: model is not available")
(error "line 3924 column 22: model is not available")
(error "line 3925 column 22: model is not available")
(error "line 3926 column 29: model is not available")
(error "line 3927 column 22: model is not available")
(error "line 3928 column 29: model is not available")
(error "line 3929 column 22: model is not available")
(error "line 3930 column 22: model is not available")
(error "line 3931 column 29: model is not available")
(error "line 3932 column 22: model is not available")
(error "line 3933 column 29: model is not available")
(error "line 3934 column 22: model is not available")
(error "line 3935 column 36: model is not available")
(error "line 3936 column 36: model is not available")
(error "line 3937 column 36: model is not available")
(error "line 3938 column 46: model is not available")
(error "line 3939 column 46: model is not available")
(error "line 3940 column 46: model is not available")
(error "line 3941 column 46: model is not available")
(error "line 3942 column 46: model is not available")
(error "line 3943 column 46: model is not available")
(error "line 3944 column 46: model is not available")
(error "line 3945 column 46: model is not available")
(error "line 3946 column 54: model is not available")
(error "line 3947 column 54: model is not available")
(error "line 3948 column 54: model is not available")
(error "line 3949 column 54: model is not available")
(error "line 3950 column 54: model is not available")
(error "line 3951 column 54: model is not available")
(error "line 3952 column 54: model is not available")
(error "line 3953 column 54: model is not available")
(error "line 3954 column 54: model is not available")
(error "line 3955 column 54: model is not available")
(error "line 3956 column 54: model is not available")
(error "line 3957 column 54: model is not available")
(error "line 3958 column 40: model is not available")
(error "line 3959 column 40: model is not available")
(error "line 3960 column 40: model is not available")
(error "line 3961 column 40: model is not available")
(error "line 3962 column 40: model is not available")
(error "line 3963 column 40: model is not available")
(error "line 3964 column 40: model is not available")
(error "line 3965 column 40: model is not available")
(error "line 3966 column 41: model is not available")
(error "line 3967 column 41: model is not available")
(error "line 3968 column 41: model is not available")
(error "line 3969 column 41: model is not available")
(error "line 3970 column 41: model is not available")
(error "line 3971 column 41: model is not available")
(error "line 3972 column 41: model is not available")
(error "line 3973 column 41: model is not available")
(error "line 3974 column 50: model is not available")
(error "line 3975 column 50: model is not available")
(error "line 3976 column 50: model is not available")
(error "line 3977 column 50: model is not available")
(error "line 3978 column 50: model is not available")
(error "line 3979 column 50: model is not available")
(error "line 3980 column 50: model is not available")
(error "line 3981 column 50: model is not available")
(error "line 3982 column 43: model is not available")
(error "line 3983 column 43: model is not available")
(error "line 3984 column 43: model is not available")
(error "line 3985 column 43: model is not available")
(error "line 3986 column 43: model is not available")
(error "line 3987 column 43: model is not available")
(error "line 3988 column 43: model is not available")
(error "line 3989 column 43: model is not available")
(error "line 3990 column 20: model is not available")
(error "line 3991 column 27: model is not available")
(error "line 3992 column 21: model is not available")
(error "line 3993 column 28: model is not available")
(error "line 3994 column 20: model is not available")
(error "line 3995 column 27: model is not available")
(error "line 3996 column 20: model is not available")
(error "line 3997 column 27: model is not available")
(error "line 3998 column 20: model is not available")
(error "line 3999 column 27: model is not available")
(error "line 4000 column 20: model is not available")
(error "line 4001 column 27: model is not available")
(error "line 4002 column 20: model is not available")
(error "line 4003 column 27: model is not available")
(error "line 4004 column 20: model is not available")
(error "line 4005 column 27: model is not available")
(error "line 4006 column 20: model is not available")
(error "line 4007 column 27: model is not available")
(error "line 4008 column 20: model is not available")
(error "line 4009 column 27: model is not available")
(error "line 4010 column 30: model is not available")
(error "line 4011 column 30: model is not available")
(error "line 4012 column 30: model is not available")
(error "line 4013 column 30: model is not available")
(error "line 4014 column 36: model is not available")
(error "line 4015 column 36: model is not available")
(error "line 4016 column 36: model is not available")
(error "line 4017 column 36: model is not available")
(error "line 4018 column 30: model is not available")
(error "line 4019 column 36: model is not available")
(error "line 4020 column 36: model is not available")
(error "line 4021 column 36: model is not available")
(error "line 4022 column 36: model is not available")
(error "line 4023 column 36: model is not available")
(error "line 4024 column 36: model is not available")
(error "line 4025 column 36: model is not available")
(error "line 4026 column 69: model is not available")
(error "line 4027 column 69: model is not available")
(error "line 4028 column 69: model is not available")
(error "line 4029 column 69: model is not available")
(error "line 4030 column 69: model is not available")
(error "line 4031 column 69: model is not available")
(error "line 4032 column 32: model is not available")
(error "line 4033 column 32: model is not available")
(error "line 4034 column 32: model is not available")
(error "line 4035 column 32: model is not available")
(error "line 4036 column 32: model is not available")
(error "line 4037 column 32: model is not available")
(error "line 4038 column 32: model is not available")
(error "line 4039 column 32: model is not available")
(error "line 4040 column 32: model is not available")
(error "line 4041 column 32: model is not available")
(error "line 4042 column 32: model is not available")
(error "line 4043 column 32: model is not available")
(error "line 4044 column 32: model is not available")
(error "line 4045 column 32: model is not available")
(error "line 4046 column 32: model is not available")
(error "line 4047 column 30: model is not available")
(error "line 4048 column 30: model is not available")
(error "line 4049 column 30: model is not available")
(error "line 4051 column 10: model is not available")
(:added-eqs                      174
 :arith-bound-propagations-cheap 85
 :arith-bound-propagations-lp    190
 :arith-conflicts                2
 :arith-lower                    139
 :arith-make-feasible            76
 :arith-max-columns              175
 :arith-max-rows                 134
 :arith-propagations             85
 :arith-upper                    94
 :array-ax1                      3
 :binary-propagations            1033
 :bv-bit2core                    1831
 :bv-diseqs                      2
 :bv->core-eq                    3
 :conflicts                      33
 :decisions                      162
 :del-clause                     421
 :eliminated-applications        19
 :eliminated-vars                27
 :max-memory                     4.91
 :memory                         3.42
 :minimized-lits                 1
 :mk-bool-var                    1038
 :mk-clause                      916
 :num-allocs                     2136784
 :num-checks                     1
 :propagations                   1353
 :rlimit-count                   139079
 :time                           0.02
 :total-time                     0.03)

real	0m0.039s
user	0m0.036s
sys	0m0.003s
State: RE Run_time: 0.04110121726989746